c CNF-Signature AND_22
c 
c $p 22 1
c $m (1,2,3,4,5,6,7,8,9,10,11,12,13,14,15,16,17,18,19,20,21,22,23)
c $i 1
c $i 2
c $i 3
c $i 4
c $i 5
c $i 6
c $i 7
c $i 8
c $i 9
c $i 10
c $i 11
c $i 12
c $i 13
c $i 14
c $i 15
c $i 16
c $i 17
c $i 18
c $i 19
c $i 20
c $i 21
c $i 22
c $o 23
p cnf 23 23
1 -23 0
2 -23 0
3 -23 0
4 -23 0
5 -23 0
6 -23 0
7 -23 0
8 -23 0
9 -23 0
10 -23 0
11 -23 0
12 -23 0
13 -23 0
14 -23 0
15 -23 0
16 -23 0
17 -23 0
18 -23 0
19 -23 0
20 -23 0
21 -23 0
22 -23 0
-1 -2 -3 -4 -5 -6 -7 -8 -9 -10 -11 -12 -13 -14 -15 -16 -17 -18 -19 -20 -21 -22 23 0
